10J3M/DAT/10J3MUNX-6.dat
10 3
32.0517 5.6614
35.2802 5.9397
32.4264 5.6944
16.5486 4.068
6.8969 2.6262
34.3729 5.8628
1.7885 1.3373
8.2411 2.8707
2.3617 1.5368
35.1467 5.9285
41.5258