10J3M/SOL/10J3MUNX-6.sol
solution status: optimal solution found
objective value:                     76.9127333333333
x#1#2                                               1 	(obj:0)
x#2#1                                               1 	(obj:0)
x#3#2                                               1 	(obj:0)
x#4#2                               0.332763373911967 	(obj:0)
x#4#3                               0.667236626088033 	(obj:0)
x#5#1                                               1 	(obj:0)
x#6#1                                               1 	(obj:0)
x#7#1                                               1 	(obj:0)
x#8#1                               0.169996301423036 	(obj:0)
x#8#2                               0.830003698576963 	(obj:0)
x#9#3                                               1 	(obj:0)
x#10#1                                              1 	(obj:0)
z                                    76.9127333333333 	(obj:1)
